DIMACS2
80 152 241 316 190 89 220 7 295 173 134 52 289 109 243 50 198 47 41 233 146 112 135 76 113 181 99 144 197 209 3 87 143 255 311 270 151 287 292 131 26 120 189 213 32 125 257 273 83 19 161 288 283 254 96 286 124 22 188 5 59 278 77 80 222 55 65 215 175 296 74 100 48 196 300 149 262 145 304 271 172
p edge 320 322
e 0 5 8.0
e 1 88 1.0
e 1 0 2.0
e 2 269 1.0
e 3 226 23.0
e 4 289 36.0
e 5 277 33.0
e 6 209 33.0
e 7 4 8.0
e 8 49 1.0
e 8 1 1.0
e 9 292 16.0
e 10 275 1.0
e 11 203 1.0
e 12 28 1.0
e 13 266 1.0
e 14 271 35.0
e 15 43 1.0
e 16 264 1.0
e 17 134 37.0
e 18 137 4.0
e 19 101 31.0
e 20 254 18.0
e 21 258 5.0
e 22 292 12.0
e 23 24 1.0
e 24 140 1.0
e 25 201 2.0
e 26 179 48.0
e 27 102 1.0
e 28 85 1.0
e 29 53 2.0
e 30 285 3.0
e 31 104 1.0
e 32 78 6.0
e 33 81 1.0
e 34 247 3.0
e 35 56 1.0
e 36 225 2.0
e 37 61 1.0
e 38 238 2.0
e 39 221 3.0
e 40 5 47.0
e 41 193 47.0
e 42 292 20.0
e 43 290 1.0
e 44 252 2.0
e 45 178 1.0
e 46 147 1.0
e 47 114 40.0
e 48 314 4.0
e 49 255 32.0
e 50 42 5.0
e 51 292 16.0
e 52 265 24.0
e 53 189 20.0
e 54 192 1.0
e 55 236 17.0
e 56 72 2.0
e 57 159 5.0
e 58 267 7.0
e 59 206 8.0
e 60 203 1.0
e 61 312 1.0
e 62 144 30.0
e 63 99 9.0
e 64 215 4.0
e 65 87 7.0
e 66 226 1.0
e 67 211 1.0
e 68 20 9.0
e 69 10 1.0
e 70 295 25.0
e 71 151 49.0
e 72 274 3.0
e 73 162 1.0
e 74 166 19.0
e 75 272 1.0
e 76 1 6.0
e 77 154 30.0
e 78 177 2.0
e 79 202 1.0
e 80 100 8.0
e 81 68 1.0
e 82 172 45.0
e 83 169 21.0
e 84 119 1.0
e 85 36 6.0
e 86 296 49.0
e 87 207 6.0
e 88 81 1.0
e 89 250 2.0
e 90 241 23.0
e 91 255 3.0
e 92 161 47.0
e 93 64 1.0
e 94 242 3.0
e 95 189 35.0
e 96 311 43.0
e 97 245 2.0
e 98 252 1.0
e 99 79 27.0
e 100 145 20.0
e 101 126 5.0
e 102 198 20.0
e 103 310 1.0
e 104 4 1.0
e 105 285 1.0
e 106 35 1.0
e 107 60 1.0
e 108 52 15.0
e 109 306 42.0
e 110 34 1.0
e 111 273 43.0
e 112 64 7.0
e 113 298 8.0
e 114 22 6.0
e 115 257 4.0
e 116 290 1.0
e 117 94 1.0
e 118 251 1.0
e 119 30 1.0
e 120 64 35.0
e 121 205 1.0
e 122 275 1.0
e 123 65 32.0
e 124 64 33.0
e 125 132 8.0
e 126 258 4.0
e 127 134 13.0
e 128 311 32.0
e 129 5 46.0
e 130 46 1.0
e 131 224 12.0
e 132 207 1.0
e 133 238 1.0
e 134 274 21.0
e 135 185 22.0
e 136 225 1.0
e 137 175 24.0
e 138 140 5.0
e 139 185 1.0
e 140 290 1.0
e 141 65 38.0
e 142 48 5.0
e 143 291 35.0
e 144 264 27.0
e 145 277 18.0
e 146 310 24.0
e 147 81 1.0
e 148 204 1.0
e 149 22 10.0
e 150 92 1.0
e 151 85 39.0
e 152 179 37.0
e 153 271 29.0
e 154 247 3.0
e 155 170 2.0
e 156 209 10.0
e 157 191 2.0
e 158 255 28.0
e 159 190 23.0
e 160 67 2.0
e 161 144 8.0
e 162 55 10.0
e 163 244 2.0
e 164 251 1.0
e 165 236 5.0
e 166 158 1.0
e 167 281 1.0
e 168 105 1.0
e 169 139 2.0
e 170 252 1.0
e 171 264 1.0
e 172 160 47.0
e 173 276 48.0
e 174 301 1.0
e 175 231 11.0
e 176 177 1.0
e 177 125 8.0
e 178 318 1.0
e 179 121 1.0
e 180 7 25.0
e 181 29 26.0
e 182 49 1.0
e 183 287 17.0
e 184 44 1.0
e 185 131 13.0
e 186 78 1.0
e 187 315 2.0
e 188 102 27.0
e 189 25 25.0
e 190 66 25.0
e 191 200 2.0
e 192 160 11.0
e 193 62 1.0
e 194 171 2.0
e 195 107 2.0
e 196 13 43.0
e 197 230 4.0
e 198 138 40.0
e 199 99 27.0
e 200 246 1.0
e 201 102 1.0
e 202 34 5.0
e 203 119 1.0
e 204 131 10.0
e 205 244 1.0
e 206 107 2.0
e 207 13 1.0
e 208 112 13.0
e 209 118 15.0
e 210 299 1.0
e 211 314 2.0
e 212 41 32.0
e 213 156 26.0
e 214 120 26.0
e 215 245 6.0
e 216 36 1.0
e 217 221 1.0
e 218 111 1.0
e 219 250 1.0
e 220 6 4.0
e 221 283 8.0
e 222 34 30.0
e 223 189 12.0
e 224 124 24.0
e 225 85 4.0
e 226 299 1.0
e 227 102 1.0
e 228 290 1.0
e 229 44 1.0
e 230 206 1.0
e 231 199 1.0
e 232 180 1.0
e 233 298 10.0
e 234 88 2.0
e 235 299 1.0
e 236 54 6.0
e 237 132 2.0
e 238 86 2.0
e 239 240 1.0
e 240 179 1.0
e 241 118 47.0
e 242 200 1.0
e 243 231 8.0
e 244 291 1.0
e 245 30 1.0
e 246 180 5.0
e 247 164 1.0
e 248 77 19.0
e 249 7 33.0
e 250 249 1.0
e 251 249 2.0
e 252 152 28.0
e 253 162 2.0
e 254 260 45.0
e 255 12 16.0
e 256 212 2.0
e 257 5 33.0
e 258 188 32.0
e 259 112 34.0
e 260 245 2.0
e 261 136 1.0
e 262 163 33.0
e 263 273 38.0
e 264 122 1.0
e 265 37 10.0
e 266 114 1.0
e 267 52 3.0
e 268 256 1.0
e 269 224 1.0
e 270 170 29.0
e 271 291 44.0
e 272 241 15.0
e 273 240 2.0
e 274 266 1.0
e 275 35 1.0
e 276 87 20.0
e 277 13 1.0
e 278 66 39.0
e 279 97 1.0
e 280 304 30.0
e 281 53 2.0
e 282 99 23.0
e 283 78 33.0
e 284 71 8.0
e 285 1 2.0
e 286 13 11.0
e 287 301 29.0
e 288 131 22.0
e 289 183 19.0
e 290 159 5.0
e 291 274 1.0
e 292 24 33.0
e 293 249 1.0
e 294 306 1.0
e 295 256 21.0
e 296 118 47.0
e 297 129 2.0
e 298 80 40.0
e 299 232 1.0
e 300 47 29.0
e 301 4 1.0
e 302 203 1.0
e 303 211 2.0
e 304 317 39.0
e 305 94 1.0
e 306 183 1.0
e 307 145 46.0
e 308 224 1.0
e 309 64 1.0
e 310 218 1.0
e 311 48 28.0
e 312 65 25.0
e 313 289 3.0
e 314 102 1.0
e 315 240 2.0
e 316 114 38.0
e 317 73 1.0
e 318 138 6.0
e 319 114 1.0
